
Gurobi 9.1.2 (win64, Java) logging started Sat Nov  6 09:45:20 2021

Academic license - for non-commercial use only - expires 2022-10-30
Gurobi Optimizer version 9.1.2 build v9.1.2rc0 (win64)
Thread count: 6 physical cores, 12 logical processors, using up to 12 threads
Optimize a model with 30 rows, 200 columns and 400 nonzeros
Model fingerprint: 0xe396233e
Variable types: 0 continuous, 200 integer (200 binary)
Coefficient statistics:
  Matrix range     [1e+00, 1e+03]
  Objective range  [5e+02, 1e+03]
  Bounds range     [1e+00, 1e+00]
  RHS range        [1e+00, 1e+03]
Found heuristic solution: objective 6876.0000000
Presolve removed 3 rows and 99 columns
Presolve time: 0.00s
Presolved: 27 rows, 101 columns, 200 nonzeros
Variable types: 0 continuous, 101 integer (101 binary)
Presolved: 27 rows, 101 columns, 200 nonzeros


Root relaxation: objective 1.076004e+04, 58 iterations, 0.00 seconds

    Nodes    |    Current Node    |     Objective Bounds      |     Work
 Expl Unexpl |  Obj  Depth IntInf | Incumbent    BestBd   Gap | It/Node Time

     0     0 10760.0401    0   12 6876.00000 10760.0401  56.5%     -    0s
H    0     0                    9576.0000000 10760.0401  12.4%     -    0s
H    0     0                    9632.0000000 10760.0401  11.7%     -    0s
H    0     0                    9694.0000000 10760.0401  11.0%     -    0s
H    0     0                    10093.000000 10760.0401  6.61%     -    0s
H    0     0                    10102.000000 10729.1684  6.21%     -    0s
     0     0 10240.8125    0    7 10102.0000 10240.8125  1.37%     -    0s
     0     0 10228.8499    0   14 10102.0000 10228.8499  1.26%     -    0s
H    0     0                    10141.000000 10228.8499  0.87%     -    0s
     0     0 10179.5287    0    8 10141.0000 10179.5287  0.38%     -    0s
     0     0 10148.5000    0   10 10141.0000 10148.5000  0.07%     -    0s

Explored 1 nodes (171 simplex iterations) in 0.11 seconds
Thread count was 12 (of 12 available processors)

Solution count 7: 10141 10102 10093 ... 6876

Optimal solution found (tolerance 1.00e-04)
Best objective 1.014100000000e+04, best bound 1.014100000000e+04, gap 0.0000%
